	209103.0	3000.0
	209103.0	3000.0
	219999.0	0.0


	175038.0	18000.0
	175038.0	18000.0
	189993.0	0.0


	219999.0	0.0
	219999.0	0.0


	188273.0	0.0


	175038.0	18000.0
	193617.0	12000.0


	193617.0	12000.0
	193617.0	12000.0


	182000.0	15000.0
	182000.0	15000.0
	195146.0	0.0


	209103.0	3000.0
	209103.0	3000.0


	178585.0	15000.0
	195146.0	0.0


	197714.0	9000.0
	209103.0	3000.0
	224831.0	0.0
	224831.0	0.0


